(declare-fun e () String)
(declare-fun c () String)
(declare-fun d () String)
(declare-fun f () String)
(declare-fun a () String)
(declare-fun h () String)
(assert (= "dg" (str.++ c e)))
(assert (= (str.++ d "ba" d h h) (str.++ "h" f)))
(assert (= a (str.++ "b" c)))

(check-sat)
